NAME : EUR101
COMMENT : EUR100 Problem + Regensburg from SA & BM
TYPE : TSP
DIMENSION : 101
EDGE_WEIGHT_TYPE : EUC_2D
NODE_COORD_SECTION

Amsterdam 52.376848257868076 4.9066736497783126
Antwerpen 51.22219477573028 4.415471764789687
Athen 37.98485554440704 23.740396471157613
Barcelona 41.3910049998553 2.1751973615185674
Basel 47.55942225749094 7.589598685023579
Belfast 54.60192806166977 -5.9293869430451975
Belgrad 44.818781858716534 20.44302788281817
Bergen 60.39058448172165 5.328474951576356
Berlin 52.520055948010075 13.419112257498362
Bern 46.9455694150952 7.44848442205806
Bilbao 43.26366404999999 -2.9328084067107185
Birmingham 52.48685727508542 -1.9158497626089916
Bonn 50.737368893726604 7.090511648994318
Bordeaux 44.8434872359161 -0.5829247670786948
Bratislava 48.14630589478347 17.102147177125786
Bremen 53.07863043737559 8.815812747918569
Brünn 49.196299369217556 16.613597551590644
Brüssel 50.84794091698324 4.358934822517811
Bukarest 44.42950679336061 26.119316805032966
Budapest 47.491877416984984 19.049241324022283
Burgas 42.505146822682626 27.454701976510297
Konstanza 44.15826848774822 28.64235576623607
Cork 51.89826634380892 -8.474553028070709
Craiova 44.33188502264964 23.793608459914353
DenHaag 52.07364960974559 4.311919691696669
Dortmund 51.51084148298099 7.460615387510919
Dresden 51.04788857562116 13.729979228700703
Dublin 53.353384837221334 -6.252603026797824
Düsseldorf 51.22458029438417 6.782069095038573
Edinburgh 55.95384111346176 -3.1820229109549514
Danzig 54.34236263527321 18.621017939613257
Genua 44.4062935081841 8.94847034533237
Glasgow 55.86272701899504 -4.257207922987091
Göteborg 57.7271538271099 11.923943288738778
Granada 37.18310597646717 -3.601230956710213
Graz 47.06793134901067 15.433713401925054
Hamburg 53.54914477564472 9.985467457445523
Hannover 52.37836964824509 9.718866120172443
Helsinki 60.165141175532135 24.940376542948847
Istanbul 41.020022989511155 28.979052039987806
Köln 50.942531032760364 6.970034376848716
Kopenhagen 55.68244100238674 12.586927091198381
Krakau 50.058778001862834 19.933345778433107
Leeds 53.805550640094715 -1.5646034515504832
Leipzig 51.33445653204257 12.38398764248426
St.Petersburg 59.94208944616338 30.423948141753375
Lüttich 50.6406001034475 5.571115591874849
Lissabon 38.72146713292068 -9.134341031543329
Liverpool 38.71878849206522 -9.132967740583668
Lodz 51.76747183647951 19.46800888767226
London 51.503003743417395 -0.12975111903819192
Luxenburg 49.6181160893056 6.122328068497111
Lyon 45.76582512471663 4.837524628416572
Madrid 40.41809211308441 -3.7042558894564763
Madgeburg 52.11446789008827 11.615735838341305
Malaga 36.7181084048894 -4.446531764987295
Malmö 55.59766903986476 13.026928281427613
Manchester 53.4901111120533 -2.2392639965258394
Marseille 43.30385560930642 5.392956275761865
Mailand 45.47224644471271 9.197635057154374
Minsk 53.914936101899045 27.528791804001912
Monaco 43.736603716365444 7.423791868088611
Moskau 55.78215994967289 37.71992448904875
München 48.1370295950491 11.55553171235177
Neapel 40.85081718866272 14.268918328094504
Nizza 43.70655153606468 7.264474682349114
Odessa 46.47309615708573 30.740616889094593
Oslo 59.91616799750074 10.753504380787849
Palermo 38.11666256251959 13.363457144412612
Paris 48.851960660895145 2.3518313680346217
Plowdiw 42.14298472722492 24.753223344447626
Pilsen 49.747433463716206 13.365781517734739
Porto 41.15535151472743 -8.638443840121212
Prag 50.09012100953725 14.447795486888472
Riga 56.96307364237518 24.10020503015517
Rom 41.894267866183455 12.448065330006859
Rostock 54.10364351033447 12.108469368366366
Rotterdam 51.92448353564741 4.486699602476712
Sarajevo 43.862562852836476 18.431016271166964
Sevilla 37.38998781745203 -5.983222055286179
Sheffield 53.37970119045411 -1.4514233747234646
Skopje 42.00203402601196 21.419386536011004
Smolensk 54.791565592038324 32.056234765309924
Sofia 42.69495957657577 23.310172443891208
Southampton 50.91716796382533 -1.4025616706308874
Split 43.513538179497495 16.44465746943148
Stockholm 59.33179735792032 18.060055646165377
Straßburg 48.57579433341296 7.757262823580131
Stuttgart 48.7832636503345 9.16756574149286
Thessaloniki 40.63831466980191 22.945863104569693
Turin 45.07193164279055 7.696180579019945
Toulouse 43.61202051685882 1.45755152759765
Triest 45.65253051765315 13.763746745450128
Turku 60.45250817581389 22.257142215901826
Uppsala 59.85555226526446 17.6220577614544
Valenzia 39.471834254317066 -0.386928184946553
Warschau 52.2367480123696 21.031173909466403
Wien 48.20695053647394 16.374112393692688
Zagreb 45.80402035740099 15.973938182242396
Zürich 47.373603725674265 8.538099247966331
Regensburg 49.01967619256584 12.099154550276399
